============================[ Problem Statistics ]=============================|                                                                             ||  Number of variables:          4242                                         ||  Number of clauses:           10373                                         ||  Parse time:                   0.76 s                                       ||                                                                             |============================[ Search Statistics ]==============================| Conflicts |          ORIGINAL         |          LEARNT          | Progress ||           |    Vars  Clauses Literals |    Limit  Clauses Lit/Cl |          |===============================================================================|       100 |    1591     6578  1212999 |     2411      100     53 | 62.501 % ||       250 |    1591     6578  1212999 |     2653      250     75 | 62.495 % |===============================================================================restarts              : 4conflicts             : 411            (360 /sec)decisions             : 771            (0.00 % random) (675 /sec)propagations          : 13666          (11967 /sec)conflict literals     : 34271          (94.53 % deleted)CPU time              : 1.142 sSATISFIABLE